0 33 33
1 25 36
2 24 36
3 32 38
4 35 40
5 34 38
6 34 37
7 35 35
8 27 34
9 30 32
10 23 32
11 29 31
12 18 34
13 29 32
14 27 29
15 30 30
16 29 29
17 27 30
18 29 30
19 28 31
20 9 28
21 19 26
22 21 23
23 20 22
24 14 21
25 22 22
26 19 21
27 13 20
28 8 17
29 13 14
30 12 13
31 12 12
32 12 12
33 11 11
34 7 11
35 10 11
36 5 10
37 7 9
38 7 7
39 3 5
40 3 4
41 1 3
42 2 2
43 2 2

